letting n =  10
letting blocks =  [[1, 10], [3, 3], [4, 3], [4, 9], [5, 9], [6, 2], [6, 3], [6, 7], [6, 9], [7, 8], [8, 1], [8, 6], [8, 8], [9, 4], [9, 5], [9, 7], [10, 4], [10, 5], [10, 7], [10, 10]]
